// import Types.dzn;

interface IPositionSensor
{
    extern Position $Position$;
    
    in void getCurrentPosition(Position posInM);
    in void getLastEndstopPosition(Position posInM);

    behavior {
        on getCurrentPosition, getLastEndstopPosition: {}
    }
}